15
200
300
0 13 8 9 6 15 7 5 10 11 20 4 13 8 9
13 0 6 10 18 15 13 6 5 11 9 12 8 14 16
8 6 0 12 12 7 13 9 16 20 18 9 5 12 14
9 10 12 0 6 11 17 8 19 15 6 5 7 10 12
6 18 12 6 0 10 10 15 6 17 20 13 15 6 5
15 15 7 11 10 0 6 9 10 12 13 8 7 11 10
7 13 13 17 10 6 0 9 10 11 11 15 14 7 6
5 6 9 8 15 9 9 0 11 15 10 9 6 9 8
10 5 16 19 6 10 10 11 0 14 18 15 13 6 8
11 11 20 15 17 12 11 15 14 0 7 10 8 9 5
20 9 18 6 20 13 11 10 18 7 0 9 8 10 12
4 12 9 5 13 8 15 9 15 10 9 0 7 10 12
13 8 5 7 15 7 14 6 13 8 8 7 0 6 5
8 14 12 10 6 11 7 9 6 9 10 10 6 0 8
9 16 14 12 5 10 6 8 8 5 12 12 5 8 0